(set-logic QF_SLIA)
(set-option :produce-models true)
(declare-const X String)
; [\t ]+
(assert (not (str.in_re X (re.++ (re.+ (re.union (str.to_re "\u{09}") (str.to_re " "))) (str.to_re "\u{0a}")))))
; ^(\d)?(\d|,)*\.?\d{1,2}$
(assert (str.in_re X (re.++ (re.opt (re.range "0" "9")) (re.* (re.union (re.range "0" "9") (str.to_re ","))) (re.opt (str.to_re ".")) ((_ re.loop 1 2) (re.range "0" "9")) (str.to_re "\u{0a}"))))
; /outerhtml\s*?\+\=\s*?\u{22}/i
(assert (str.in_re X (re.++ (str.to_re "/outerhtml") (re.* (re.union (str.to_re " ") (str.to_re "\u{09}") (str.to_re "\u{0a}") (str.to_re "\u{0c}") (str.to_re "\u{0d}"))) (str.to_re "+=") (re.* (re.union (str.to_re " ") (str.to_re "\u{09}") (str.to_re "\u{0a}") (str.to_re "\u{0c}") (str.to_re "\u{0d}"))) (str.to_re "\u{22}/i\u{0a}"))))
; (\/\/-->\s*)?<\/?SCRIPT([^>]*)>(\s*<!--\s)?
(assert (str.in_re X (re.++ (re.opt (re.++ (str.to_re "//-->") (re.* (re.union (str.to_re " ") (str.to_re "\u{09}") (str.to_re "\u{0a}") (str.to_re "\u{0c}") (str.to_re "\u{0d}"))))) (str.to_re "<") (re.opt (str.to_re "/")) (str.to_re "SCRIPT") (re.* (re.comp (str.to_re ">"))) (str.to_re ">") (re.opt (re.++ (re.* (re.union (str.to_re " ") (str.to_re "\u{09}") (str.to_re "\u{0a}") (str.to_re "\u{0c}") (str.to_re "\u{0d}"))) (str.to_re "<!--") (re.union (str.to_re " ") (str.to_re "\u{09}") (str.to_re "\u{0a}") (str.to_re "\u{0c}") (str.to_re "\u{0d}")))) (str.to_re "\u{0a}"))))
(check-sat)
